TIP.Original.Linear/tip2015_nat_acc_plus_assoc.smt2
(set-logic HORN)
(declare-datatypes ((Nat_151 0)) (((zero_0 ) (succ_0 (p_0 Nat_151)))))
(declare-fun diseqNat_151 (Nat_151 Nat_151) Bool)
(declare-fun p_1 (Nat_151 Nat_151) Bool)
(declare-fun iszero_0 (Nat_151) Bool)
(declare-fun issucc_0 (Nat_151) Bool)
(assert (forall ((x_4091 Nat_151))
	(p_1 x_4091 (succ_0 x_4091))))
(assert (iszero_0 zero_0))
(assert (forall ((x_4093 Nat_151))
	(issucc_0 (succ_0 x_4093))))
(assert (forall ((x_4094 Nat_151))
	(diseqNat_151 zero_0 (succ_0 x_4094))))
(assert (forall ((x_4095 Nat_151))
	(diseqNat_151 (succ_0 x_4095) zero_0)))
(assert (forall ((x_4096 Nat_151) (x_4097 Nat_151))
	(=> (diseqNat_151 x_4096 x_4097)
	    (diseqNat_151 (succ_0 x_4096) (succ_0 x_4097)))))
(declare-fun accplus_0 (Nat_151 Nat_151 Nat_151) Bool)
(assert (forall ((x_4082 Nat_151) (z_423 Nat_151) (y_334 Nat_151))
	(=> (accplus_0 x_4082 z_423 (succ_0 y_334))
	    (accplus_0 x_4082 (succ_0 z_423) y_334))))
(assert (forall ((x_4084 Nat_151))
	(accplus_0 x_4084 zero_0 x_4084)))
(assert (forall ((x_4085 Nat_151) (x_4086 Nat_151) (x_4087 Nat_151) (x_4088 Nat_151) (x_4081 Nat_151) (y_335 Nat_151) (z_424 Nat_151))
	(=>	(and true
			(diseqNat_151 x_4086 x_4088)
			(accplus_0 x_4085 y_335 z_424)
			(accplus_0 x_4086 x_4081 x_4085)
			(accplus_0 x_4087 x_4081 y_335)
			(accplus_0 x_4088 x_4087 z_424))
		false)))
(check-sat)
